(declare-fun var0 () String)
(assert (RegexIn var0 (RegexConcat (RegexUnion (RegexStar (Str2Reg "T")) (RegexPlus (Str2Reg "U"))) (RegexConcat (RegexUnion (RegexUnion (Str2Reg "Q") (Str2Reg "RRR")) (RegexStar (Str2Reg "S"))) (RegexConcat (RegexStar (RegexUnion (Str2Reg "OO") (Str2Reg "PPP"))) (RegexConcat (RegexPlus (RegexPlus (Str2Reg "N"))) (RegexConcat (RegexStar (RegexPlus (Str2Reg "M"))) (RegexConcat (RegexStar (RegexPlus (Str2Reg "LL"))) (RegexConcat (RegexStar (RegexStar (Str2Reg "KKK"))) (RegexConcat (RegexStar (RegexPlus (Str2Reg "JJ"))) (RegexConcat (RegexStar (RegexStar (Str2Reg "I"))) (RegexConcat (RegexPlus (RegexPlus (Str2Reg "HH"))) (RegexConcat (RegexStar (RegexUnion (Str2Reg "FF") (Str2Reg "GG"))) (RegexConcat (RegexPlus (RegexPlus (Str2Reg "E"))) (RegexConcat (RegexUnion (RegexUnion (Str2Reg "BBB") (Str2Reg "CCC")) (RegexStar (Str2Reg "DD"))) (RegexConcat (RegexStar (RegexStar (Str2Reg "AAA"))) (RegexConcat (RegexPlus (RegexPlus (Str2Reg "z"))) (RegexConcat (RegexUnion (RegexUnion (Str2Reg "w") (Str2Reg "xx")) (RegexPlus (Str2Reg "yyy"))) (RegexConcat (RegexPlus (RegexPlus (Str2Reg "v"))) (RegexConcat (RegexUnion (RegexUnion (Str2Reg "rr") (Str2Reg "sss")) (RegexUnion (Str2Reg "ttt") (Str2Reg "u"))) (RegexConcat (RegexPlus (RegexPlus (Str2Reg "qqq"))) (RegexConcat (RegexStar (RegexUnion (Str2Reg "oo") (Str2Reg "pp"))) (RegexConcat (RegexStar (RegexStar (Str2Reg "n"))) (RegexConcat (RegexStar (RegexPlus (Str2Reg "mmm"))) (RegexConcat (RegexStar (RegexPlus (Str2Reg "lll"))) (RegexConcat (RegexUnion (RegexStar (Str2Reg "j")) (RegexPlus (Str2Reg "k"))) (RegexConcat (RegexUnion (RegexPlus (Str2Reg "hh")) (RegexStar (Str2Reg "i"))) (RegexConcat (RegexUnion (RegexUnion (Str2Reg "eee") (Str2Reg "f")) (RegexPlus (Str2Reg "gg"))) (RegexConcat (RegexStar (RegexStar (Str2Reg "ddd"))) (RegexConcat (RegexUnion (RegexPlus (Str2Reg "bb")) (RegexStar (Str2Reg "ccc"))) (RegexConcat (RegexUnion (RegexUnion (Str2Reg "88") (Str2Reg "999")) (RegexStar (Str2Reg "a"))) (RegexConcat (RegexStar (RegexPlus (Str2Reg "77"))) (RegexConcat (RegexStar (RegexPlus (Str2Reg "6"))) (RegexConcat (RegexUnion (RegexPlus (Str2Reg "444")) (RegexPlus (Str2Reg "555"))) (RegexConcat (RegexUnion (RegexPlus (Str2Reg "222")) (RegexPlus (Str2Reg "333"))) (RegexConcat (RegexStar (RegexStar (Str2Reg "11"))) (RegexPlus (RegexPlus (Str2Reg "00")))))))))))))))))))))))))))))))))))))))
(check-sat)